[runlim] version:		1.10
[runlim] time limit:		311040000 seconds
[runlim] real time limit:	600 seconds
[runlim] space limit:		14000 MB
[runlim] argv[0]:		python3
[runlim] argv[1]:		cp.py
[runlim] argv[2]:		graph05
[runlim] start:			Tue Jan 20 17:46:12 2026
[runlim] main pid:		148123
[runlim] sample:		10.0 time, 10.1 real, 1041.9 MB
Building CP model...
Solving CP Optimizer...
 ! --------------------------------------------------- CP Optimizer 22.1.1.0 --
 ! Minimization problem - 7464 variables, 536201 constraints
 ! Presolve      : 536403 extractables eliminated
 ! LogVerbosity         = Terse
 ! Initial process time : 4.40s (4.38s extraction + 0.03s propagation)
 !  . Log search space  : 7464.0 (before), 7464.0 (after)
 !  . Memory usage      : 83.4 MB (before), 83.4 MB (after)
 ! Using parallel search with 12 workers.
 ! ----------------------------------------------------------------------------
 !          Best Branches  Non-fixed    W       Branch decision
                        0       7464                 -
 + New bound is 0
                        0       7464    1            -
 + New bound is 1
 ! ----------------------------------------------------------------------------
 ! Search completed, model has no solution.
 ! Best bound             : 1
 ! ----------------------------------------------------------------------------
 ! Number of branches     : 107637
 ! Number of fails        : 33029
 ! Total memory usage     : 2.0 GB (2.0 GB CP Optimizer + 0.0 GB Concert)
 ! Time spent in solve    : 10.30s (5.92s engine + 4.38s extraction)
 ! Search speed (br. / s) : 18181.9
 ! ----------------------------------------------------------------------------
No valid solution: Infeasible
[runlim] sample:		67.9 time, 20.1 real, 2641.6 MB
[runlim] end:			Tue Jan 20 17:46:33 2026
[runlim] status:		ok
[runlim] result:		0
[runlim] children:		161
[runlim] real:			21.07 seconds
[runlim] time:			68.10 seconds
[runlim] space:			4458.8 MB
[runlim] samples:		209
